
Gurobi 7.0.2 (linux64, Matlab) logging started Sun Sep  2 08:55:42 2018


Gurobi 7.0.2 (linux64) logging started Sun Sep  2 08:55:42 2018

Optimize a model with 13099 rows, 116670 columns and 386400 nonzeros
Coefficient statistics:
  Matrix range     [1e+00, 1e+02]
  Objective range  [1e+01, 2e+02]
  Bounds range     [1e-03, 1e+00]
  RHS range        [1e+00, 3e+03]
Iteration    Objective       Primal Inf.    Dual Inf.      Time
       0    9.3610000e+03   0.000000e+00   0.000000e+00      0s

Solved in 0 iterations and 0.02 seconds
Optimal objective  9.361000000e+03
